70
1224
7
16
59
88
31
21
80
66
0 3
0 4
0 5
0 6
0 7
0 8
0 9
0 10
0 12
0 18
0 20
0 21
0 23
0 24
0 25
0 26
0 30
0 31
0 34
0 35
0 36
0 38
0 39
0 40
0 43
0 45
0 48
0 51
0 54
0 60
0 63
0 64
0 65
0 66
0 68
0 69
1 4
1 5
1 6
1 7
1 10
1 12
1 16
1 17
1 22
1 24
1 26
1 27
1 29
1 37
1 38
1 40
1 41
1 45
1 46
1 48
1 49
1 50
1 51
1 53
1 58
1 60
1 62
1 64
1 67
2 3
2 4
2 9
2 11
2 12
2 13
2 14
2 15
2 16
2 17
2 18
2 21
2 22
2 23
2 27
2 32
2 33
2 35
2 36
2 37
2 39
2 40
2 42
2 44
2 46
2 49
2 52
2 53
2 55
2 58
2 60
2 61
2 67
3 5
3 7
3 8
3 10
3 11
3 12
3 16
3 17
3 18
3 20
3 22
3 25
3 28
3 29
3 32
3 33
3 35
3 37
3 38
3 39
3 41
3 47
3 49
3 50
3 51
3 52
3 54
3 56
3 58
3 59
3 60
3 61
3 63
3 64
3 65
3 69
4 5
4 8
4 9
4 10
4 11
4 13
4 14
4 16
4 17
4 19
4 21
4 22
4 24
4 28
4 29
4 30
4 31
4 35
4 37
4 41
4 42
4 45
4 46
4 49
4 51
4 52
4 53
4 54
4 55
4 56
4 57
4 61
4 62
4 63
4 65
4 66
4 67
4 68
4 69
5 6
5 8
5 11
5 12
5 13
5 14
5 15
5 17
5 19
5 20
5 21
5 24
5 25
5 26
5 27
5 30
5 35
5 36
5 37
5 39
5 40
5 43
5 45
5 49
5 50
5 51
5 52
5 53
5 54
5 56
5 57
5 61
5 64
5 65
5 68
5 69
6 9
6 13
6 17
6 20
6 22
6 25
6 26
6 28
6 30
6 36
6 41
6 43
6 44
6 45
6 49
6 52
6 55
6 56
6 57
6 59
6 63
6 66
6 67
6 68
6 69
7 10
7 12
7 13
7 14
7 15
7 17
7 18
7 19
7 21
7 23
7 24
7 25
7 26
7 28
7 29
7 30
7 31
7 32
7 33
7 36
7 37
7 42
7 45
7 51
7 55
7 56
7 58
7 59
7 61
7 63
7 64
7 65
7 66
7 67
8 10
8 16
8 18
8 19
8 20
8 23
8 27
8 28
8 29
8 31
8 32
8 33
8 34
8 36
8 38
8 40
8 41
8 44
8 45
8 47
8 48
8 53
8 54
8 56
8 57
8 58
8 59
8 60
8 61
8 66
8 68
8 69
9 12
9 13
9 15
9 18
9 20
9 23
9 26
9 27
9 29
9 32
9 33
9 34
9 35
9 36
9 37
9 41
9 42
9 44
9 45
9 46
9 48
9 54
9 58
9 59
9 61
9 62
9 63
9 66
9 68
10 11
10 16
10 20
10 22
10 23
10 24
10 26
10 27
10 28
10 32
10 33
10 34
10 38
10 39
10 43
10 45
10 50
10 52
10 55
10 59
10 60
10 62
10 64
10 66
10 69
11 13
11 14
11 16
11 17
11 19
11 20
11 23
11 29
11 30
11 32
11 33
11 37
11 38
11 40
11 46
11 50
11 51
11 53
11 57
11 58
11 59
11 60
11 62
11 64
11 65
11 67
12 15
12 16
12 17
12 19
12 24
12 25
12 29
12 32
12 33
12 35
12 36
12 37
12 39
12 40
12 42
12 43
12 45
12 46
12 51
12 54
12 56
12 57
12 58
12 59
12 62
12 65
12 67
12 68
13 14
13 15
13 16
13 17
13 25
13 27
13 28
13 29
13 31
13 32
13 33
13 37
13 40
13 41
13 42
13 45
13 47
13 50
13 51
13 52
13 53
13 55
13 56
13 59
13 61
13 63
13 64
13 67
14 15
14 16
14 18
14 19
14 25
14 27
14 32
14 33
14 35
14 37
14 38
14 43
14 45
14 48
14 49
14 51
14 55
14 56
14 58
14 62
14 63
15 17
15 23
15 26
15 28
15 31
15 32
15 36
15 37
15 40
15 41
15 42
15 43
15 44
15 45
15 47
15 48
15 50
15 51
15 56
15 60
15 61
15 62
15 63
15 64
15 66
15 68
16 18
16 19
16 20
16 21
16 22
16 25
16 27
16 28
16 29
16 30
16 31
16 34
16 35
16 36
16 41
16 42
16 43
16 46
16 47
16 49
16 50
16 52
16 53
16 54
16 56
16 57
16 59
16 60
16 61
16 62
16 66
16 67
16 68
16 69
17 20
17 21
17 22
17 23
17 24
17 26
17 28
17 29
17 30
17 33
17 35
17 36
17 37
17 39
17 40
17 41
17 42
17 46
17 48
17 49
17 50
17 53
17 57
17 58
17 61
17 63
17 64
17 65
17 66
17 67
17 69
18 20
18 21
18 24
18 25
18 26
18 28
18 29
18 30
18 32
18 36
18 37
18 42
18 44
18 45
18 46
18 48
18 50
18 51
18 54
18 55
18 56
18 60
18 61
18 62
18 63
18 65
18 66
18 67
19 21
19 23
19 24
19 26
19 29
19 30
19 31
19 33
19 34
19 35
19 37
19 38
19 39
19 40
19 43
19 44
19 48
19 50
19 51
19 52
19 55
19 56
19 60
19 63
19 68
20 21
20 23
20 24
20 25
20 32
20 36
20 37
20 40
20 42
20 43
20 44
20 47
20 48
20 50
20 51
20 56
20 59
20 60
20 61
20 68
20 69
21 22
21 23
21 28
21 30
21 31
21 33
21 34
21 36
21 37
21 39
21 40
21 44
21 45
21 46
21 47
21 48
21 49
21 51
21 52
21 54
21 65
21 67
21 68
21 69
22 23
22 25
22 27
22 28
22 30
22 32
22 33
22 35
22 36
22 40
22 41
22 42
22 46
22 47
22 50
22 51
22 52
22 54
22 57
22 59
22 61
22 62
22 67
22 69
23 24
23 25
23 26
23 28
23 29
23 30
23 32
23 34
23 35
23 37
23 38
23 41
23 43
23 44
23 46
23 48
23 49
23 52
23 54
23 55
23 57
23 60
23 63
23 69
24 25
24 26
24 27
24 28
24 29
24 33
24 34
24 35
24 38
24 40
24 41
24 42
24 43
24 47
24 48
24 49
24 53
24 62
24 66
24 67
25 28
25 29
25 30
25 36
25 37
25 39
25 41
25 43
25 44
25 46
25 48
25 50
25 51
25 56
25 57
25 60
25 62
25 64
25 66
25 69
26 27
26 31
26 32
26 33
26 36
26 37
26 38
26 39
26 40
26 41
26 43
26 47
26 48
26 50
26 52
26 54
26 56
26 57
26 58
26 60
26 61
26 65
26 66
27 28
27 29
27 30
27 32
27 33
27 34
27 39
27 41
27 42
27 46
27 47
27 49
27 50
27 51
27 52
27 54
27 56
27 57
27 58
27 60
27 62
27 65
27 66
27 67
28 31
28 32
28 36
28 37
28 41
28 44
28 45
28 46
28 47
28 51
28 54
28 55
28 62
28 64
28 69
29 30
29 33
29 35
29 38
29 39
29 41
29 42
29 43
29 48
29 52
29 53
29 56
29 58
29 59
29 62
29 64
29 65
29 66
29 69
30 31
30 33
30 36
30 38
30 39
30 41
30 44
30 46
30 47
30 50
30 52
30 56
30 58
30 59
30 61
30 62
30 65
30 66
30 67
30 69
31 33
31 34
31 40
31 41
31 42
31 43
31 44
31 45
31 46
31 47
31 49
31 53
31 54
31 55
31 57
31 61
31 64
31 68
31 69
32 36
32 37
32 43
32 44
32 45
32 47
32 48
32 52
32 53
32 54
32 55
32 56
32 63
32 65
32 66
33 36
33 39
33 40
33 41
33 42
33 44
33 46
33 47
33 48
33 49
33 50
33 51
33 54
33 55
33 56
33 58
33 59
33 62
33 63
33 64
33 65
33 68
34 36
34 38
34 39
34 41
34 42
34 44
34 45
34 46
34 47
34 48
34 49
34 52
34 55
34 56
34 59
34 61
34 62
34 63
34 64
34 67
34 69
35 36
35 39
35 41
35 44
35 46
35 47
35 49
35 50
35 51
35 53
35 55
35 58
35 59
35 60
35 61
35 62
35 63
35 64
36 38
36 39
36 40
36 44
36 45
36 46
36 51
36 52
36 53
36 54
36 56
36 60
36 62
36 64
36 65
36 67
36 68
36 69
37 38
37 40
37 41
37 42
37 44
37 47
37 48
37 49
37 50
37 51
37 54
37 57
37 59
37 60
37 61
37 63
37 64
37 66
37 67
37 68
38 39
38 42
38 47
38 48
38 50
38 51
38 53
38 54
38 55
38 58
38 60
38 62
38 63
38 65
38 66
38 69
39 40
39 43
39 44
39 45
39 53
39 54
39 55
39 57
39 59
39 60
39 61
39 62
39 64
39 65
39 66
39 68
40 42
40 43
40 44
40 45
40 46
40 48
40 49
40 50
40 53
40 54
40 56
40 57
40 59
40 61
40 63
40 64
40 66
40 68
41 42
41 43
41 44
41 45
41 47
41 48
41 49
41 50
41 51
41 53
41 58
41 59
41 61
41 63
41 67
42 44
42 46
42 48
42 50
42 51
42 52
42 53
42 55
42 56
42 58
42 60
42 61
42 62
42 64
42 67
42 68
42 69
43 44
43 45
43 48
43 49
43 52
43 54
43 55
43 57
43 58
43 59
43 60
43 64
43 65
43 68
43 69
44 48
44 49
44 50
44 52
44 53
44 55
44 56
44 58
44 59
44 60
44 61
44 65
44 66
44 68
45 49
45 50
45 51
45 53
45 54
45 59
45 61
45 62
45 63
45 66
45 67
45 68
46 48
46 52
46 57
46 58
46 60
46 62
46 63
46 64
46 65
46 66
46 69
47 51
47 52
47 56
47 57
47 58
47 59
47 60
47 65
47 68
47 69
48 52
48 53
48 55
48 63
48 66
48 67
48 69
49 51
49 53
49 54
49 55
49 56
49 60
49 61
49 64
49 66
49 67
49 68
50 51
50 53
50 58
50 60
50 61
50 64
50 66
50 67
50 68
51 52
51 54
51 57
51 58
51 64
51 65
51 66
51 67
51 68
52 53
52 55
52 56
52 58
52 60
52 61
52 62
52 66
53 55
53 56
53 57
53 63
53 64
53 66
53 67
53 68
54 55
54 56
54 57
54 58
54 59
54 60
54 61
54 63
54 65
54 66
54 67
54 69
55 59
55 60
55 61
55 62
55 65
56 57
56 59
56 60
56 62
56 63
56 66
56 67
56 69
57 58
57 59
57 60
57 61
57 62
57 67
57 68
58 59
58 63
58 65
58 66
58 68
59 62
59 65
59 66
59 68
59 69
60 62
60 63
60 64
60 67
61 63
61 64
61 69
62 63
62 64
62 69
63 64
63 68
63 69
64 66
64 67
65 69
66 69
67 69
54 52 14 32 65 13 21 35 59 15
12 69 22 26 53 45 24 6 56 1
19 68 44 0 7 3 31 60 46 66
2 64 27 33 9 36 47 39 11 40
50 34 38 10 63 41 42 55 57 51
61 25 30 58 8 37 28 20 18 17
62 49 67 29 16 4 48 5 23 43
